D = 2;
n = [ 3 3 ];
N = 8;
d = [1 1 1 1 2 2 2 2 ];
m = [
[1.00 0.50 0.30 0.63 0.89 0.52 0.89 0.85 ]
[0.50 1.00 0.28 0.63 0.42 0.73 0.05 0.34 ]
[0.30 0.28 1.00 0.53 0.73 0.97 0.24 0.54 ]
[0.63 0.63 0.53 1.00 0.18 0.31 0.97 0.23 ]
[0.89 0.42 0.73 0.18 1.00 0.23 0.85 0.45 ]
[0.52 0.73 0.97 0.31 0.23 1.00 0.24 0.05 ]
[0.89 0.05 0.24 0.97 0.85 0.24 1.00 0.03 ]
[0.85 0.34 0.54 0.23 0.45 0.05 0.03 1.00 ]
];
